Problem:    
Rows:       248
Columns:    89 (72 integer, 72 binary)
Non-zeros:  820
Status:     INTEGER OPTIMAL
Objective:  value = 15.392564 (MINimum)

   No.   Row name        Activity     Lower bound   Upper bound
------ ------------    ------------- ------------- -------------
     1 r.5                   2015.39             0               
     2 r.6                  -1995.72      -1999.37               
     3 r.7                   15.3926             0               
     4 r.8                      1.71      -1997.21               
     5 r.9                   2015.39             0               
     6 r.10                 -1996.35       -1999.3               
     7 r.11                  15.3926             0               
     8 r.12                 -1968.16      -1996.33               
     9 r.13                  2015.39             0               
    10 r.14                 -1992.45      -1998.96               
    11 r.15                  15.3926             0               
    12 r.16                 -1975.18      -1995.21               
    13 r.17                  2015.39             0               
    14 r.18                 -1995.23      -1999.51               
    15 r.19                  15.3926             0               
    16 r.20                  4.77257      -1996.94               
    17 r.21                  2015.39             0               
    18 r.22                 -1994.21      -1999.26               
    19 r.23                  15.3926             0               
    20 r.24                 -1971.84      -1996.66               
    21 r.25                  2015.39             0               
    22 r.26                 -1986.34      -1998.24               
    23 r.27                  15.3926             0               
    24 r.28                 -1979.97      -1997.99               
    25 r.29                  2015.39             0               
    26 r.30                 -1984.61      -1998.27               
    27 r.31                  15.3926             0               
    28 r.32                  15.3926      -1997.65               
    29 r.33                  2015.39             0               
    30 r.34                 -1999.95      -1999.95               
    31 r.35                  15.3926             0               
    32 r.36                   0.0518      -1998.12               
    33 r.37                        1             1             = 
    34 r.38                        1             1             = 
    35 r.39                        1             1             = 
    36 r.40                        1             1             = 
    37 r.41                        1             1             = 
    38 r.42                        1             1             = 
    39 r.43                        1             1             = 
    40 r.44                        1             1             = 
    41 r.45                  1999.37      0.696103               
    42 r.46                 -1999.37      -1999.37               
    43 r.47                  30.1271        3.6726               
    44 r.48                 -30.1271      -1997.21               
    45 r.49                  3.26913       1.03544               
    46 r.50                 -3.26913      -1999.37               
    47 r.51                  23.1112       4.78687               
    48 r.52                 -23.1112      -1997.21               
    49 r.53                 0.493656      0.493656               
    50 r.54                -0.493656      -1999.37               
    51 r.55                  3.06257       3.06257               
    52 r.56                 -3.06257      -1997.21               
    53 r.57                  1.51139      0.741589               
    54 r.58                 -1.51139      -1999.37               
    55 r.59                  26.4545       3.34334               
    56 r.60                 -26.4545      -1997.21               
    57 r.61                 -1990.61      -1992.13               
    58 r.62                 -1984.24      -1985.76               
    59 r.63                 -1988.05      -1992.13               
    60 r.64                 -1981.68      -1985.76               
    61 r.65                  11.1136       1.72837               
    62 r.66                 -11.1136      -1999.37               
    63 r.67                  13.6826       2.35463               
    64 r.68                 -13.6826      -1997.21               
    65 r.69                 -1995.77      -1996.87               
    66 r.70                   1.6582      -1992.21               
    67 r.71                 -1995.77      -1996.87               
    68 r.72                   1.6582      -1992.21               
    69 r.73                 0.628022      0.628022               
    70 r.74                -0.628022       -1999.3               
    71 r.75                  1969.87       2.78668               
    72 r.76                 -1969.87      -1996.33               
    73 r.77                  3.89715       1.03544               
    74 r.78                 -3.89715       -1999.3               
    75 r.79                  1992.98       4.78687               
    76 r.80                 -1992.98      -1996.33               
    77 r.81                  1.12168      0.493656               
    78 r.82                 -1.12168       -1999.3               
    79 r.83                  1972.94       3.06257               
    80 r.84                 -1972.94      -1996.33               
    81 r.85                  2.13941      0.741589               
    82 r.86                 -2.13941       -1999.3               
    83 r.87                  1996.33       3.34334               
    84 r.88                 -1996.33      -1996.33               
    85 r.89                  10.0133       1.75773               
    86 r.90                 -10.0133       -1999.3               
    87 r.91                   1988.2        2.0117               
    88 r.92                  -1988.2      -1996.33               
    89 r.93                 -1988.26      -1992.16               
    90 r.94                  11.7417      -1985.41               
    91 r.95                 -16.4446      -1992.16               
    92 r.96                  1983.56      -1985.41               
    93 r.97                  -1996.4      -1997.56               
    94 r.98                 -1968.21      -1992.85               
    95 r.99                  -1996.4      -1997.56               
    96 r.100                -1968.21      -1992.85               
    97 r.101                 1996.73      0.628022               
    98 r.102                -1996.73      -1998.96               
    99 r.103                 1976.89       2.78668               
   100 r.104                -1976.89      -1995.21               
   101 r.105                  1996.1      0.696103               
   102 r.106                 -1996.1      -1998.96               
   103 r.107                 7.01594        3.6726               
   104 r.108                -7.01594      -1995.21               
   105 r.109                -1997.22      -1997.22               
   106 r.110                -1979.95      -1991.73               
   107 r.111                -1997.22      -1997.22               
   108 r.112                -1979.95      -1991.73               
   109 r.113                 1998.24      0.741589               
   110 r.114                -1998.24      -1998.96               
   111 r.115                 3.34334       3.34334               
   112 r.116                -3.34334      -1995.21               
   113 r.117                 6.11615       1.75773               
   114 r.118                -6.11615      -1998.96               
   115 r.119                 1995.21        2.0117               
   116 r.120                -1995.21      -1995.21               
   117 r.121                -1992.16      -1992.16               
   118 r.122                 7.84452      -1985.41               
   119 r.123                -9.42862      -1992.16               
   120 r.124                 1990.57      -1985.41               
   121 r.125                 -1992.5      -1997.22               
   122 r.126                -1975.23      -1991.73               
   123 r.127                 -1992.5      -1997.22               
   124 r.128                -1975.23      -1991.73               
   125 r.129                 1999.51      0.628022               
   126 r.130                -1999.51      -1999.51               
   127 r.131                 1996.94       2.78668               
   128 r.132                -1996.94      -1996.94               
   129 r.133                 1998.88      0.696103               
   130 r.134                -1998.88      -1999.51               
   131 r.135                 27.0646        3.6726               
   132 r.136                -27.0646      -1996.94               
   133 r.137                -1997.22      -1997.22               
   134 r.138                -1979.95      -1991.73               
   135 r.139                -1997.22      -1997.22               
   136 r.140                -1979.95      -1991.73               
   137 r.141                 1.01774      0.741589               
   138 r.142                -1.01774      -1999.51               
   139 r.143                  23.392       3.34334               
   140 r.144                 -23.392      -1996.94               
   141 r.145                 8.89162       1.75773               
   142 r.146                -8.89162      -1999.51               
   143 r.147                 15.2617        2.0117               
   144 r.148                -15.2617      -1996.94               
   145 r.149                -1989.38      -1992.16               
   146 r.150                   10.62      -1985.41               
   147 r.151                -1989.38      -1992.16               
   148 r.152                   10.62      -1985.41               
   149 r.153                -1995.28      -1995.28               
   150 r.154                 4.72077      -1988.48               
   151 r.155                -1995.28      -1995.28               
   152 r.156                 4.72077      -1988.48               
   153 r.157                 1998.49      0.628022               
   154 r.158                -1998.49      -1999.26               
   155 r.159                 1973.55       2.78668               
   156 r.160                -1973.55      -1996.66               
   157 r.161                 1997.86      0.696103               
   158 r.162                -1997.86      -1999.26               
   159 r.163                  3.6726        3.6726               
   160 r.164                 -3.6726      -1996.66               
   161 r.165                 1.75773       1.03544               
   162 r.166                -1.75773      -1999.26               
   163 r.167                 1996.66       4.78687               
   164 r.168                -1996.66      -1996.66               
   165 r.169                 1998.98      0.493656               
   166 r.170                -1998.98      -1999.26               
   167 r.171                 1976.61       3.06257               
   168 r.172                -1976.61      -1996.66               
   169 r.173                -1992.13      -1992.13               
   170 r.174                -1985.76      -1985.76               
   171 r.175                -14.5003      -1992.13               
   172 r.176                -8.13021      -1985.76               
   173 r.177                 -1990.4      -1992.16               
   174 r.178                 9.60225      -1985.41               
   175 r.179                 -12.772      -1992.16               
   176 r.180                 1987.23      -1985.41               
   177 r.181                -1994.26      -1995.02               
   178 r.182                -1971.89      -1988.18               
   179 r.183                -1994.26      -1995.02               
   180 r.184                -1971.89      -1988.18               
   181 r.185                -1990.61      -1992.13               
   182 r.186                -1984.24      -1985.76               
   183 r.187                -1988.05      -1992.13               
   184 r.188                -1981.68      -1985.76               
   185 r.189                 1989.99      0.696103               
   186 r.190                -1989.99      -1998.24               
   187 r.191                 11.8028        3.6726               
   188 r.192                -11.8028      -1997.99               
   189 r.193                 1993.88       1.03544               
   190 r.194                -1993.88      -1998.24               
   191 r.195                 4.78687       4.78687               
   192 r.196                -4.78687      -1997.99               
   193 r.197                 1991.11      0.493656               
   194 r.198                -1991.11      -1998.24               
   195 r.199                 1984.74       3.06257               
   196 r.200                -1984.74      -1997.99               
   197 r.201                -1992.13      -1992.13               
   198 r.202                -1985.76      -1985.76               
   199 r.203                -14.5003      -1992.13               
   200 r.204                -8.13021      -1985.76               
   201 r.205                 1.72837       1.72837               
   202 r.206                -1.72837      -1998.24               
   203 r.207                 1995.36       2.35463               
   204 r.208                -1995.36      -1997.99               
   205 r.209                 1988.89      0.628022               
   206 r.210                -1988.89      -1998.27               
   207 r.211                 1986.32       2.78668               
   208 r.212                -1986.32      -1997.65               
   209 r.213                -1988.26      -1992.16               
   210 r.214                 11.7417      -1985.41               
   211 r.215                -16.4446      -1992.16               
   212 r.216                 1983.56      -1985.41               
   213 r.217                -1992.16      -1992.16               
   214 r.218                 7.84452      -1985.41               
   215 r.219                -9.42862      -1992.16               
   216 r.220                 1990.57      -1985.41               
   217 r.221                -1989.38      -1992.16               
   218 r.222                   10.62      -1985.41               
   219 r.223                -1989.38      -1992.16               
   220 r.224                   10.62      -1985.41               
   221 r.225                 -1990.4      -1992.16               
   222 r.226                 9.60225      -1985.41               
   223 r.227                 -12.772      -1992.16               
   224 r.228                 1987.23      -1985.41               
   225 r.229                 1998.27       1.75773               
   226 r.230                -1998.27      -1998.27               
   227 r.231                 4.64176        2.0117               
   228 r.232                -4.64176      -1997.65               
   229 r.233                -1995.77      -1996.87               
   230 r.234                  1.6582      -1992.21               
   231 r.235                -1995.77      -1996.87               
   232 r.236                  1.6582      -1992.21               
   233 r.237                 -1996.4      -1997.56               
   234 r.238                -1968.21      -1992.85               
   235 r.239                 -1996.4      -1997.56               
   236 r.240                -1968.21      -1992.85               
   237 r.241                 -1992.5      -1997.22               
   238 r.242                -1975.23      -1991.73               
   239 r.243                 -1992.5      -1997.22               
   240 r.244                -1975.23      -1991.73               
   241 r.245                -1995.28      -1995.28               
   242 r.246                 4.72077      -1988.48               
   243 r.247                -1995.28      -1995.28               
   244 r.248                 4.72077      -1988.48               
   245 r.249                -1994.26      -1995.02               
   246 r.250                -1971.89      -1988.18               
   247 r.251                -1994.26      -1995.02               
   248 r.252                -1971.89      -1988.18               

   No. Column name       Activity     Lower bound   Upper bound
------ ------------    ------------- ------------- -------------
     1 tt                    15.3926             0               
     2 s_1_1        *              1             0             1 
     3 t_1_1                 11.1136             0               
     4 s_1_6        *              1             0             1 
     5 s_2_1        *              0             0             1 
     6 t_2_1                 13.6826             0               
     7 s_2_6        *              0             0             1 
     8 s_1_2        *              1             0             1 
     9 t_1_2                 11.7417             0               
    10 s_1_7        *              1             0             1 
    11 s_2_2        *              0             0             1 
    12 t_2_2                 1983.56             0               
    13 s_2_7        *              0             0             1 
    14 s_1_3        *              1             0             1 
    15 t_1_3                 7.84452             0               
    16 s_2_3        *              0             0             1 
    17 t_2_3                 1990.57             0               
    18 s_1_4        *              1             0             1 
    19 t_1_4                   10.62             0               
    20 s_2_4        *              0             0             1 
    21 t_2_4                   10.62             0               
    22 s_1_5        *              1             0             1 
    23 t_1_5                 9.60225             0               
    24 s_2_5        *              0             0             1 
    25 t_2_5                 1987.23             0               
    26 t_1_6                 1.72837             0               
    27 t_2_6                 1995.36             0               
    28 t_1_7                       0             0               
    29 t_2_7                       0             0               
    30 s_1_8        *              1             0             1 
    31 t_1_8                 15.3408             0               
    32 s_2_8        *              0             0             1 
    33 t_2_8                 15.3408             0               
    34 u_1_1_2      *              1             0             1 
    35 u_2_1_2      *              1             0             1 
    36 u_1_1_3      *              0             0             1 
    37 u_2_1_3      *              1             0             1 
    38 u_1_1_4      *              0             0             1 
    39 u_2_1_4      *              0             0             1 
    40 u_1_1_5      *              0             0             1 
    41 u_2_1_5      *              1             0             1 
    42 u_1_1_7      *              0             0             1 
    43 u_2_1_7      *              0             0             1 
    44 u_1_2_1      *              0             0             1 
    45 u_2_2_1      *              0             0             1 
    46 u_1_2_3      *              0             0             1 
    47 u_2_2_3      *              1             0             1 
    48 u_1_2_4      *              0             0             1 
    49 u_2_2_4      *              0             0             1 
    50 u_1_2_5      *              0             0             1 
    51 u_2_2_5      *              1             0             1 
    52 u_1_2_6      *              0             0             1 
    53 u_2_2_6      *              1             0             1 
    54 u_1_3_1      *              1             0             1 
    55 u_2_3_1      *              0             0             1 
    56 u_1_3_2      *              1             0             1 
    57 u_2_3_2      *              0             0             1 
    58 u_1_3_5      *              1             0             1 
    59 u_2_3_5      *              0             0             1 
    60 u_1_3_6      *              0             0             1 
    61 u_2_3_6      *              1             0             1 
    62 u_1_4_1      *              1             0             1 
    63 u_2_4_1      *              1             0             1 
    64 u_1_4_2      *              1             0             1 
    65 u_2_4_2      *              1             0             1 
    66 u_1_4_5      *              0             0             1 
    67 u_2_4_5      *              1             0             1 
    68 u_1_4_6      *              0             0             1 
    69 u_2_4_6      *              1             0             1 
    70 u_1_5_1      *              1             0             1 
    71 u_2_5_1      *              0             0             1 
    72 u_1_5_2      *              1             0             1 
    73 u_2_5_2      *              0             0             1 
    74 u_1_5_3      *              0             0             1 
    75 u_2_5_3      *              1             0             1 
    76 u_1_5_4      *              1             0             1 
    77 u_2_5_4      *              0             0             1 
    78 u_1_6_2      *              1             0             1 
    79 u_2_6_2      *              0             0             1 
    80 u_1_6_3      *              1             0             1 
    81 u_2_6_3      *              0             0             1 
    82 u_1_6_4      *              1             0             1 
    83 u_2_6_4      *              0             0             1 
    84 u_1_6_7      *              0             0             1 
    85 u_2_6_7      *              0             0             1 
    86 u_1_7_1      *              1             0             1 
    87 u_2_7_1      *              1             0             1 
    88 u_1_7_6      *              1             0             1 
    89 u_2_7_6      *              1             0             1 

Integer feasibility conditions:

KKT.PE: max.abs.err = 2.27e-13 on row 185
        max.rel.err = 6.35e-17 on row 73
        High quality

KKT.PB: max.abs.err = 7.55e-14 on row 51
        max.rel.err = 1.86e-14 on row 51
        High quality

End of output
